CapLotSizing_PM/src/Instancias/TCHSHT/25i18p2m/NBA04.OUT
 CG ITER, OVMR, OVMRUB =           1  167757.7656250  167757.7187500
 CG ITER, OVMR, OVMRUB =           2  165617.1875000  165617.1875000
 CG ITER, OVMR, OVMRUB =           3  165617.1875000  165617.1875000
 CG ITER, OVMR, OVMRUB =           4  165617.1875000  165617.1875000
 CG ITER, OVMR, OVMRUB =           5  160450.2343750  165617.1875000
 CG ITER, OVMR, OVMRUB =           6  160569.8281250  165617.1875000
 CG ITER, OVMR, OVMRUB =           7  155755.1093750  165617.1875000
 CG ITER, OVMR, OVMRUB =           8  154270.6562500  165617.1875000
 CG ITER, OVMR, OVMRUB =           9  154003.2968750  165617.1875000
 CG ITER, OVMR, OVMRUB =          10  152010.5468750  165617.1875000
 CG ITER, OVMR, OVMRUB =          11  151225.2500000  165617.1875000
 CG ITER, OVMR, OVMRUB =          12  149903.7187500  165617.1875000
 CG ITER, OVMR, OVMRUB =          13  149197.6406250  165617.1875000
 CG ITER, OVMR, OVMRUB =          14  148525.3906250  165617.1875000
 CG ITER, OVMR, OVMRUB =          15  147540.4531250  165617.1875000
 CG ITER, OVMR, OVMRUB =          16  147123.9843750  165617.1875000
 CG ITER, OVMR, OVMRUB =          17  146317.2812500  165617.1875000
 CG ITER, OVMR, OVMRUB =          18  145890.3125000  165617.1875000
 CG ITER, OVMR, OVMRUB =          19  145318.8593750  165617.1875000
 CG ITER, OVMR, OVMRUB =          20  144819.8125000  165617.1875000
 CG ITER, OVMR, OVMRUB =          21  144353.9375000  165617.1875000
 CG ITER, OVMR, OVMRUB =          22  143792.5468750  165617.1875000
 CG ITER, OVMR, OVMRUB =          23  143301.3125000  165617.1875000
 CG ITER, OVMR, OVMRUB =          24  142941.6250000  165617.1875000
 CG ITER, OVMR, OVMRUB =          25  142642.2968750  165617.1875000
 CG ITER, OVMR, OVMRUB =          26  142394.1250000  165617.1875000
 CG ITER, OVMR, OVMRUB =          27  142036.1718750  165617.1875000
 CG ITER, OVMR, OVMRUB =          28  141696.2343750  165617.1875000
 CG ITER, OVMR, OVMRUB =          29  141454.4531250  165617.1875000
 CG ITER, OVMR, OVMRUB =          30  141200.4843750  165617.1875000
 CG ITER, OVMR, OVMRUB =          31  140928.5156250  165617.1875000
 CG ITER, OVMR, OVMRUB =          32  140739.4843750  165617.1875000
 CG ITER, OVMR, OVMRUB =          33  140599.8906250  165617.1875000
 CG ITER, OVMR, OVMRUB =          34  140360.7343750  165617.1875000
 CG ITER, OVMR, OVMRUB =          35  140215.0312500  165617.1875000
 CG ITER, OVMR, OVMRUB =          36  140126.7031250  165617.1875000
 CG ITER, OVMR, OVMRUB =          37  139963.4531250  165617.1875000
 CG ITER, OVMR, OVMRUB =          38  139808.9687500  165617.1875000
 CG ITER, OVMR, OVMRUB =          39  139712.4531250  165617.1875000
 CG ITER, OVMR, OVMRUB =          40  139580.2500000  165617.1875000
 CG ITER, OVMR, OVMRUB =          41  139457.8593750  165617.1875000
 CG ITER, OVMR, OVMRUB =          42  139342.3593750  165617.1875000
 CG ITER, OVMR, OVMRUB =          43  139232.7656250  165617.1875000
 CG ITER, OVMR, OVMRUB =          44  139100.9218750  165617.1875000
 CG ITER, OVMR, OVMRUB =          45  138961.9531250  165617.1875000
 CG ITER, OVMR, OVMRUB =          46  138860.3750000  165617.1875000
 CG ITER, OVMR, OVMRUB =          47  138771.2656250  165617.1875000
 CG ITER, OVMR, OVMRUB =          48  138671.0312500  165617.1875000
 CG ITER, OVMR, OVMRUB =          49  138593.3593750  165617.1875000
 CG ITER, OVMR, OVMRUB =          50  138531.8437500  165617.1875000
 CG ITER, OVMR, OVMRUB =          51  138503.7343750  165617.1875000
 CG ITER, OVMR, OVMRUB =          52  138416.8125000  165617.1875000
 CG ITER, OVMR, OVMRUB =          53  138402.8437500  165617.1875000
 CG ITER, OVMR, OVMRUB =          54  138346.8593750  165617.1875000
 CG ITER, OVMR, OVMRUB =          55  138267.3437500  165617.1875000
 CG ITER, OVMR, OVMRUB =          56  138242.0468750  165617.1875000
 CG ITER, OVMR, OVMRUB =          57  138179.3437500  165617.1875000
 CG ITER, OVMR, OVMRUB =          58  138165.1718750  165617.1875000
 CG ITER, OVMR, OVMRUB =          59  138119.3125000  165617.1875000
 CG ITER, OVMR, OVMRUB =          60  138076.0312500  165617.1875000
 CG ITER, OVMR, OVMRUB =          61  138039.2656250  165617.1875000
 CG ITER, OVMR, OVMRUB =          62  138001.3125000  165617.1875000
 CG ITER, OVMR, OVMRUB =          63  137975.4218750  165617.1875000
 CG ITER, OVMR, OVMRUB =          64  137944.7500000  165617.1875000
 CG ITER, OVMR, OVMRUB =          65  137933.9843750  165617.1875000
 CG ITER, OVMR, OVMRUB =          66  137898.6875000  165617.1875000
 CG ITER, OVMR, OVMRUB =          67  137879.7500000  165617.1875000
 CG ITER, OVMR, OVMRUB =          68  137872.5000000  165617.1875000
 CG ITER, OVMR, OVMRUB =          69  137863.2187500  165617.1875000
 CG ITER, OVMR, OVMRUB =          70  137834.8437500  165617.1875000
 CG ITER, OVMR, OVMRUB =          71  137788.5937500  165617.1875000
 CG ITER, OVMR, OVMRUB =          72  137790.0312500  165617.1875000
 CG ITER, OVMR, OVMRUB =          73  137764.1093750  165617.1875000
 CG ITER, OVMR, OVMRUB =          74  137758.1093750  165617.1875000
 CG ITER, OVMR, OVMRUB =          75  137751.1718750  165617.1875000
 CG ITER, OVMR, OVMRUB =          76  137752.9531250  165617.1875000
 CG ITER, OVMR, OVMRUB =          77  137726.9687500  165617.1875000
 CG ITER, OVMR, OVMRUB =          78  137707.2812500  165617.1875000
 CG ITER, OVMR, OVMRUB =          79  137713.2500000  165617.1875000
 CG ITER, OVMR, OVMRUB =          80  137708.2031250  165617.1875000
 CG ITER, OVMR, OVMRUB =          81  137688.5312500  165617.1875000
 CG ITER, OVMR, OVMRUB =          82  137680.9687500  165617.1875000
 CG ITER, OVMR, OVMRUB =          83  137667.6562500  165617.1875000
 CG ITER, OVMR, OVMRUB =          84  137677.3750000  165617.1875000
 CG ITER, OVMR, OVMRUB =          85  137676.6093750  165617.1875000
 CG ITER, OVMR, OVMRUB =          86  137660.6562500  165617.1875000
 CG ITER, OVMR, OVMRUB =          87  137661.7500000  165617.1875000
 CG ITER, OVMR, OVMRUB =          88  137667.9687500  165617.1875000
 CG ITER, OVMR, OVMRUB =          89  137676.5937500  165617.1875000
 CG ITER, OVMR, OVMRUB =          90  137661.7812500  165617.1875000
 CG ITER, OVMR, OVMRUB =          91  137659.0156250  165617.1875000
 CG ITER, OVMR, OVMRUB =          92  137663.0468750  165617.1875000
 CG ITER, OVMR, OVMRUB =          93  137650.8750000  165617.1875000
 CG ITER, OVMR, OVMRUB =          94  137654.9062500  165617.1875000
 CG ITER, OVMR, OVMRUB =          95  137637.9062500  165617.1875000
 CG ITER, OVMR, OVMRUB =          96  137639.7968750  165617.1875000
 CG ITER, OVMR, OVMRUB =          97  137665.0625000  165617.1875000
 CG ITER, OVMR, OVMRUB =          98  137662.0000000  165617.1875000
 CG ITER, OVMR, OVMRUB =          99  137653.4843750  164199.6562500
 CG ITER, OVMR, OVMRUB =         100  137642.8593750  164199.6562500
 CG ITER, OVMR, OVMRUB =         101  137658.1562500  164199.6562500
 CG ITER, OVMR, OVMRUB =         102  137653.4687500  162021.8125000
 CG ITER, OVMR, OVMRUB =         103  137667.5156250  162021.8125000
 CG ITER, OVMR, OVMRUB =         104  137652.3750000  162021.8125000
 CG ITER, OVMR, OVMRUB =         105  137663.8281250  162021.8125000
 CG ITER, OVMR, OVMRUB =         106  137661.3125000  162021.8125000
 CG ITER, OVMR, OVMRUB =         107  137657.6718750  162021.8125000
 CG ITER, OVMR, OVMRUB =         108  137657.0156250  162021.8125000
 CG ITER, OVMR, OVMRUB =         109  137650.8437500  162021.8125000
 CG ITER, OVMR, OVMRUB =         110  137664.5000000  162021.8125000
 CG ITER, OVMR, OVMRUB =         111  137655.7968750  162021.8125000
 CG ITER, OVMR, OVMRUB =         112  137657.6093750  162021.8125000
 CG ITER, OVMR, OVMRUB =         113  137648.5937500  162021.8125000
 CG ITER, OVMR, OVMRUB =         114  137658.7812500  162021.8125000
 CG ITER, OVMR, OVMRUB =         115  137650.5937500  162021.8125000
 CG ITER, OVMR, OVMRUB =         116  137644.9062500  162021.8125000
 CG ITER, OVMR, OVMRUB =         117  137639.7343750  162021.8125000
 CG ITER, OVMR, OVMRUB =         118  137652.4843750  162021.8125000
 CG ITER, OVMR, OVMRUB =         119  137650.6718750  162021.8125000
 CG ITER, OVMR, OVMRUB =         120  137644.3750000  162021.8125000
 CG ITER, OVMR, OVMRUB =         121  137655.8750000  162021.8125000
 CG ITER, OVMR, OVMRUB =         122  137648.0625000  162021.8125000
 CG ITER, OVMR, OVMRUB =         123  137640.3906250  162021.8125000
 CG ITER, OVMR, OVMRUB =         124  137642.9218750  162021.8125000
 CG ITER, OVMR, OVMRUB =         125  137641.1093750  162021.8125000
 CG ITER, OVMR, OVMRUB =         126  137664.1406250  162021.8125000
 CG ITER, OVMR, OVMRUB =         127  137642.8125000  162021.8125000
 CG ITER, OVMR, OVMRUB =         128  137660.6250000  153852.1875000
 CG ITER, OVMR, OVMRUB =         129  137660.7343750  153852.1875000
 CG ITER, OVMR, OVMRUB =         130  137668.0625000  153852.1875000
 CG ITER, OVMR, OVMRUB =         131  137671.2656250  153852.1875000
 CG ITER, OVMR, OVMRUB =         132  137674.3437500  153852.1875000
 CG ITER, OVMR, OVMRUB =         133  137667.1562500  153852.1875000
 CG ITER, OVMR, OVMRUB =         134  137667.1562500  153852.1875000
OVLB =  137667.1562500 OVLUB =  153852.1875000 TIME =     138.1999969
